
Gurobi 6.5.2 (linux64) logging started Mon Jun  5 17:02:24 2017


Gurobi 6.5.2 (linux64) logging started Mon Jun  5 17:03:46 2017

Optimize a model with 294 rows, 0 columns and 0 nonzeros
Coefficient statistics:
  Matrix range    [0e+00, 0e+00]
  Objective range [0e+00, 0e+00]
  Bounds range    [0e+00, 0e+00]
  RHS range       [1e+01, 1e+01]
Presolve removed 294 rows and 0 columns
Presolve time: 0.03s
Presolve: All rows and columns removed
Iteration    Objective       Primal Inf.    Dual Inf.      Time
       0   -0.0000000e+00   0.000000e+00   0.000000e+00      0s

Solved in 0 iterations and 0.04 seconds
Optimal objective -0.000000000e+00

Gurobi 6.5.2 (linux64) logging started Mon Jun  5 17:06:14 2017

Optimize a model with 294 rows, 0 columns and 0 nonzeros
Coefficient statistics:
  Matrix range    [0e+00, 0e+00]
  Objective range [0e+00, 0e+00]
  Bounds range    [0e+00, 0e+00]
  RHS range       [1e+01, 1e+01]
Presolve removed 294 rows and 0 columns
Presolve time: 0.00s
Presolve: All rows and columns removed
Iteration    Objective       Primal Inf.    Dual Inf.      Time
       0   -0.0000000e+00   0.000000e+00   0.000000e+00      0s

Solved in 0 iterations and 0.00 seconds
Optimal objective -0.000000000e+00

Gurobi 6.5.2 (linux64) logging started Mon Jun  5 17:14:58 2017


Gurobi 6.5.2 (linux64) logging started Mon Jun  5 17:20:02 2017

Optimize a model with 294 rows, 0 columns and 0 nonzeros
Coefficient statistics:
  Matrix range    [0e+00, 0e+00]
  Objective range [0e+00, 0e+00]
  Bounds range    [0e+00, 0e+00]
  RHS range       [1e+01, 1e+01]
Presolve removed 294 rows and 0 columns
Presolve time: 0.00s
Presolve: All rows and columns removed
Iteration    Objective       Primal Inf.    Dual Inf.      Time
       0   -0.0000000e+00   0.000000e+00   0.000000e+00      0s

Solved in 0 iterations and 0.00 seconds
Optimal objective -0.000000000e+00

Gurobi 6.5.2 (linux64) logging started Mon Jun  5 17:22:26 2017

Optimize a model with 294 rows, 0 columns and 0 nonzeros
Coefficient statistics:
  Matrix range    [0e+00, 0e+00]
  Objective range [0e+00, 0e+00]
  Bounds range    [0e+00, 0e+00]
  RHS range       [1e+01, 1e+01]
Presolve removed 294 rows and 0 columns
Presolve time: 0.00s
Presolve: All rows and columns removed
Iteration    Objective       Primal Inf.    Dual Inf.      Time
       0   -0.0000000e+00   0.000000e+00   0.000000e+00      0s

Solved in 0 iterations and 0.00 seconds
Optimal objective -0.000000000e+00

Gurobi 6.5.2 (linux64) logging started Mon Jun  5 17:23:16 2017


Gurobi 6.5.2 (linux64) logging started Mon Jun  5 17:24:21 2017


Gurobi 7.0.2 (linux64, Python) logging started Tue Jun  6 11:40:49 2017


Gurobi 7.0.2 (linux64, Python) logging started Tue Jun  6 11:49:04 2017

Optimize a model with 768 rows, 882 columns and 3528 nonzeros
Variable types: 0 continuous, 882 integer (882 binary)
Coefficient statistics:
  Matrix range     [1e+00, 1e+00]
  Objective range  [2e+01, 3e+01]
  Bounds range     [1e+00, 1e+00]
  RHS range        [1e+00, 1e+01]
Presolve removed 354 rows and 139 columns
Presolve time: 0.00s

Explored 0 nodes (0 simplex iterations) in 0.00 seconds
Thread count was 1 (of 8 available processors)

Solution count 0

Model is infeasible
Best objective -, best bound -, gap -

Gurobi 7.0.2 (linux64, Python) logging started Tue Jun  6 11:50:11 2017

Optimize a model with 768 rows, 882 columns and 3528 nonzeros
Variable types: 0 continuous, 882 integer (882 binary)
Coefficient statistics:
  Matrix range     [1e+00, 1e+00]
  Objective range  [2e+01, 3e+01]
  Bounds range     [1e+00, 1e+00]
  RHS range        [1e+00, 1e+01]
Found heuristic solution: objective 193
Presolve removed 629 rows and 612 columns
Presolve time: 0.01s
Presolved: 139 rows, 270 columns, 807 nonzeros
Variable types: 0 continuous, 270 integer (270 binary)

Root relaxation: objective 7.510000e+02, 7 iterations, 0.00 seconds

    Nodes    |    Current Node    |     Objective Bounds      |     Work
 Expl Unexpl |  Obj  Depth IntInf | Incumbent    BestBd   Gap | It/Node Time

*    0     0               0     751.0000000  751.00000  0.00%     -    0s

Explored 0 nodes (7 simplex iterations) in 0.01 seconds
Thread count was 8 (of 8 available processors)

Solution count 2: 751 193 
Pool objective bound 751

Optimal solution found (tolerance 1.00e-04)
Best objective 7.510000000000e+02, best bound 7.510000000000e+02, gap 0.0000%

Gurobi 7.0.2 (linux64, Python) logging started Tue Jun  6 11:50:43 2017

Optimize a model with 768 rows, 882 columns and 3528 nonzeros
Variable types: 0 continuous, 882 integer (882 binary)
Coefficient statistics:
  Matrix range     [1e+00, 1e+00]
  Objective range  [2e+01, 3e+01]
  Bounds range     [1e+00, 1e+00]
  RHS range        [1e+00, 1e+01]
Found heuristic solution: objective 193
Presolve removed 629 rows and 612 columns
Presolve time: 0.01s
Presolved: 139 rows, 270 columns, 807 nonzeros
Variable types: 0 continuous, 270 integer (270 binary)

Root relaxation: objective 7.510000e+02, 7 iterations, 0.00 seconds

    Nodes    |    Current Node    |     Objective Bounds      |     Work
 Expl Unexpl |  Obj  Depth IntInf | Incumbent    BestBd   Gap | It/Node Time

*    0     0               0     751.0000000  751.00000  0.00%     -    0s

Explored 0 nodes (7 simplex iterations) in 0.01 seconds
Thread count was 8 (of 8 available processors)

Solution count 2: 751 193 
Pool objective bound 751

Optimal solution found (tolerance 1.00e-04)
Best objective 7.510000000000e+02, best bound 7.510000000000e+02, gap 0.0000%

Gurobi 7.0.2 (linux64, Python) logging started Tue Jun  6 11:50:57 2017

Optimize a model with 768 rows, 882 columns and 3528 nonzeros
Variable types: 0 continuous, 882 integer (882 binary)
Coefficient statistics:
  Matrix range     [1e+00, 1e+00]
  Objective range  [2e+01, 3e+01]
  Bounds range     [1e+00, 1e+00]
  RHS range        [1e+00, 1e+01]
Found heuristic solution: objective 193
Presolve removed 629 rows and 612 columns
Presolve time: 0.01s
Presolved: 139 rows, 270 columns, 807 nonzeros
Variable types: 0 continuous, 270 integer (270 binary)

Root relaxation: objective 7.510000e+02, 7 iterations, 0.00 seconds

    Nodes    |    Current Node    |     Objective Bounds      |     Work
 Expl Unexpl |  Obj  Depth IntInf | Incumbent    BestBd   Gap | It/Node Time

*    0     0               0     751.0000000  751.00000  0.00%     -    0s

Explored 0 nodes (7 simplex iterations) in 0.01 seconds
Thread count was 8 (of 8 available processors)

Solution count 2: 751 193 
Pool objective bound 751

Optimal solution found (tolerance 1.00e-04)
Best objective 7.510000000000e+02, best bound 7.510000000000e+02, gap 0.0000%

Gurobi 7.0.2 (linux64, Python) logging started Tue Jun  6 11:51:25 2017

Optimize a model with 768 rows, 882 columns and 3528 nonzeros
Variable types: 0 continuous, 882 integer (882 binary)
Coefficient statistics:
  Matrix range     [1e+00, 1e+00]
  Objective range  [2e+01, 3e+01]
  Bounds range     [1e+00, 1e+00]
  RHS range        [1e+00, 1e+01]
Found heuristic solution: objective 193
Presolve removed 629 rows and 612 columns
Presolve time: 0.01s
Presolved: 139 rows, 270 columns, 807 nonzeros
Variable types: 0 continuous, 270 integer (270 binary)

Root relaxation: objective 7.510000e+02, 7 iterations, 0.00 seconds

    Nodes    |    Current Node    |     Objective Bounds      |     Work
 Expl Unexpl |  Obj  Depth IntInf | Incumbent    BestBd   Gap | It/Node Time

*    0     0               0     751.0000000  751.00000  0.00%     -    0s

Explored 0 nodes (7 simplex iterations) in 0.01 seconds
Thread count was 8 (of 8 available processors)

Solution count 2: 751 193 
Pool objective bound 751

Optimal solution found (tolerance 1.00e-04)
Best objective 7.510000000000e+02, best bound 7.510000000000e+02, gap 0.0000%

Gurobi 7.0.2 (linux64, Python) logging started Tue Jun  6 11:51:52 2017

Optimize a model with 768 rows, 882 columns and 3525 nonzeros
Variable types: 0 continuous, 882 integer (882 binary)
Coefficient statistics:
  Matrix range     [1e+00, 1e+00]
  Objective range  [2e+01, 3e+01]
  Bounds range     [1e+00, 1e+00]
  RHS range        [1e+00, 1e+01]
Found heuristic solution: objective 155
Presolve removed 626 rows and 603 columns
Presolve time: 0.01s
Presolved: 142 rows, 279 columns, 833 nonzeros
Variable types: 0 continuous, 279 integer (279 binary)

Root relaxation: objective 7.510000e+02, 73 iterations, 0.00 seconds

    Nodes    |    Current Node    |     Objective Bounds      |     Work
 Expl Unexpl |  Obj  Depth IntInf | Incumbent    BestBd   Gap | It/Node Time

*    0     0               0     751.0000000  751.00000  0.00%     -    0s

Explored 0 nodes (73 simplex iterations) in 0.01 seconds
Thread count was 8 (of 8 available processors)

Solution count 2: 751 155 
Pool objective bound 751

Optimal solution found (tolerance 1.00e-04)
Best objective 7.510000000000e+02, best bound 7.510000000000e+02, gap 0.0000%

Gurobi 7.0.2 (linux64, Python) logging started Tue Jun  6 11:52:09 2017

Optimize a model with 768 rows, 882 columns and 3516 nonzeros
Variable types: 0 continuous, 882 integer (882 binary)
Coefficient statistics:
  Matrix range     [1e+00, 1e+00]
  Objective range  [2e+01, 3e+01]
  Bounds range     [1e+00, 1e+00]
  RHS range        [1e+00, 1e+01]
Found heuristic solution: objective 145
Presolve removed 626 rows and 601 columns
Presolve time: 0.01s
Presolved: 142 rows, 281 columns, 838 nonzeros
Found heuristic solution: objective 467.0000000
Variable types: 0 continuous, 281 integer (281 binary)

Root relaxation: objective 5.300000e+02, 80 iterations, 0.00 seconds

    Nodes    |    Current Node    |     Objective Bounds      |     Work
 Expl Unexpl |  Obj  Depth IntInf | Incumbent    BestBd   Gap | It/Node Time

*    0     0               0     530.0000000  530.00000  0.00%     -    0s

Explored 0 nodes (80 simplex iterations) in 0.01 seconds
Thread count was 8 (of 8 available processors)

Solution count 2: 530 467 
Pool objective bound 530

Optimal solution found (tolerance 1.00e-04)
Best objective 5.300000000000e+02, best bound 5.300000000000e+02, gap 0.0000%

Gurobi 7.0.2 (linux64, Python) logging started Tue Jun  6 11:55:01 2017

Optimize a model with 768 rows, 882 columns and 3516 nonzeros
Variable types: 0 continuous, 882 integer (882 binary)
Coefficient statistics:
  Matrix range     [1e+00, 1e+00]
  Objective range  [2e+01, 3e+01]
  Bounds range     [1e+00, 1e+00]
  RHS range        [1e+00, 2e+00]
Found heuristic solution: objective 145
Presolve removed 71 rows and 41 columns
Presolve time: 0.01s
Presolved: 697 rows, 841 columns, 3303 nonzeros
Variable types: 0 continuous, 841 integer (841 binary)

Root relaxation: objective 3.430000e+02, 338 iterations, 0.01 seconds

    Nodes    |    Current Node    |     Objective Bounds      |     Work
 Expl Unexpl |  Obj  Depth IntInf | Incumbent    BestBd   Gap | It/Node Time

*    0     0               0     343.0000000  343.00000  0.00%     -    0s

Explored 0 nodes (338 simplex iterations) in 0.01 seconds
Thread count was 8 (of 8 available processors)

Solution count 2: 343 145 
Pool objective bound 343

Optimal solution found (tolerance 1.00e-04)
Best objective 3.430000000000e+02, best bound 3.430000000000e+02, gap 0.0000%

Gurobi 7.0.2 (linux64, Python) logging started Tue Jun  6 12:33:04 2017


Gurobi 7.0.2 (linux64, Python) logging started Tue Jun  6 12:36:47 2017


Gurobi 7.0.2 (linux64, Python) logging started Tue Jun  6 12:37:26 2017

Optimize a model with 768 rows, 882 columns and 3516 nonzeros
Variable types: 0 continuous, 882 integer (882 binary)
Coefficient statistics:
  Matrix range     [1e+00, 1e+00]
  Objective range  [0e+00, 0e+00]
  Bounds range     [1e+00, 1e+00]
  RHS range        [1e+00, 2e+00]
Found heuristic solution: objective -0

Explored 0 nodes (0 simplex iterations) in 0.00 seconds
Thread count was 1 (of 8 available processors)

Solution count 1: -0 
Pool objective bound 0

Optimal solution found (tolerance 1.00e-04)
Best objective -0.000000000000e+00, best bound -0.000000000000e+00, gap 0.0000%

Gurobi 7.0.2 (linux64, Python) logging started Tue Jun  6 12:56:44 2017


Gurobi 7.0.2 (linux64, Python) logging started Tue Jun  6 13:01:24 2017


Gurobi 7.0.2 (linux64, Python) logging started Tue Jun  6 13:02:10 2017

Optimize a model with 768 rows, 882 columns and 3516 nonzeros
Variable types: 0 continuous, 882 integer (882 binary)
Coefficient statistics:
  Matrix range     [1e+00, 1e+00]
  Objective range  [2e+00, 5e+00]
  Bounds range     [1e+00, 1e+00]
  RHS range        [1e+00, 2e+00]
Found heuristic solution: objective 8
Presolve removed 71 rows and 41 columns
Presolve time: 0.00s
Presolved: 697 rows, 841 columns, 3303 nonzeros
Variable types: 0 continuous, 841 integer (841 binary)

Root relaxation: objective 2.300000e+01, 312 iterations, 0.00 seconds

    Nodes    |    Current Node    |     Objective Bounds      |     Work
 Expl Unexpl |  Obj  Depth IntInf | Incumbent    BestBd   Gap | It/Node Time

*    0     0               0      23.0000000   23.00000  0.00%     -    0s

Explored 0 nodes (312 simplex iterations) in 0.01 seconds
Thread count was 8 (of 8 available processors)

Solution count 2: 23 8 
Pool objective bound 23

Optimal solution found (tolerance 1.00e-04)
Best objective 2.300000000000e+01, best bound 2.300000000000e+01, gap 0.0000%

Gurobi 7.0.2 (linux64, Python) logging started Tue Jun  6 13:12:53 2017

Optimize a model with 768 rows, 882 columns and 3516 nonzeros
Variable types: 0 continuous, 882 integer (882 binary)
Coefficient statistics:
  Matrix range     [1e+00, 1e+00]
  Objective range  [2e+00, 4e+00]
  Bounds range     [1e+00, 1e+00]
  RHS range        [1e+00, 2e+00]
Found heuristic solution: objective 8
Presolve removed 74 rows and 47 columns
Presolve time: 0.01s
Presolved: 694 rows, 835 columns, 3291 nonzeros
Variable types: 0 continuous, 835 integer (835 binary)

Root relaxation: objective 1.000000e+01, 326 iterations, 0.00 seconds

    Nodes    |    Current Node    |     Objective Bounds      |     Work
 Expl Unexpl |  Obj  Depth IntInf | Incumbent    BestBd   Gap | It/Node Time

*    0     0               0      10.0000000   10.00000  0.00%     -    0s

Explored 0 nodes (326 simplex iterations) in 0.01 seconds
Thread count was 8 (of 8 available processors)

Solution count 2: 10 8 
Pool objective bound 10

Optimal solution found (tolerance 1.00e-04)
Best objective 1.000000000000e+01, best bound 1.000000000000e+01, gap 0.0000%

Gurobi 7.0.2 (linux64, Python) logging started Tue Jun  6 13:12:56 2017

Optimize a model with 768 rows, 882 columns and 3516 nonzeros
Variable types: 0 continuous, 882 integer (882 binary)
Coefficient statistics:
  Matrix range     [1e+00, 1e+00]
  Objective range  [2e+00, 4e+00]
  Bounds range     [1e+00, 1e+00]
  RHS range        [1e+00, 2e+00]
Found heuristic solution: objective 8
Presolve removed 74 rows and 47 columns
Presolve time: 0.00s
Presolved: 694 rows, 835 columns, 3291 nonzeros
Variable types: 0 continuous, 835 integer (835 binary)

Root relaxation: objective 1.000000e+01, 326 iterations, 0.00 seconds

    Nodes    |    Current Node    |     Objective Bounds      |     Work
 Expl Unexpl |  Obj  Depth IntInf | Incumbent    BestBd   Gap | It/Node Time

*    0     0               0      10.0000000   10.00000  0.00%     -    0s

Explored 0 nodes (326 simplex iterations) in 0.02 seconds
Thread count was 8 (of 8 available processors)

Solution count 2: 10 8 
Pool objective bound 10

Optimal solution found (tolerance 1.00e-04)
Best objective 1.000000000000e+01, best bound 1.000000000000e+01, gap 0.0000%

Gurobi 7.0.2 (linux64, Python) logging started Tue Jun  6 14:09:17 2017

Optimize a model with 768 rows, 882 columns and 3516 nonzeros
Variable types: 0 continuous, 882 integer (882 binary)
Coefficient statistics:
  Matrix range     [1e+00, 1e+00]
  Objective range  [2e+00, 4e+00]
  Bounds range     [1e+00, 1e+00]
  RHS range        [1e+00, 2e+00]
Found heuristic solution: objective 8
Presolve removed 74 rows and 47 columns
Presolve time: 0.00s
Presolved: 694 rows, 835 columns, 3291 nonzeros
Variable types: 0 continuous, 835 integer (835 binary)

Root relaxation: objective 1.000000e+01, 326 iterations, 0.00 seconds

    Nodes    |    Current Node    |     Objective Bounds      |     Work
 Expl Unexpl |  Obj  Depth IntInf | Incumbent    BestBd   Gap | It/Node Time

*    0     0               0      10.0000000   10.00000  0.00%     -    0s

Explored 0 nodes (326 simplex iterations) in 0.01 seconds
Thread count was 8 (of 8 available processors)

Solution count 2: 10 8 
Pool objective bound 10

Optimal solution found (tolerance 1.00e-04)
Best objective 1.000000000000e+01, best bound 1.000000000000e+01, gap 0.0000%

Gurobi 7.0.2 (linux64, Python) logging started Tue Jun  6 15:05:04 2017


Gurobi 7.0.2 (linux64, Python) logging started Tue Jun  6 15:17:35 2017


Gurobi 7.0.2 (linux64, Python) logging started Tue Jun  6 15:18:03 2017


Gurobi 7.0.2 (linux64, Python) logging started Tue Jun  6 15:21:14 2017

Optimize a model with 804 rows, 882 columns and 3588 nonzeros
Variable types: 0 continuous, 882 integer (882 binary)
Coefficient statistics:
  Matrix range     [1e+00, 3e+00]
  Objective range  [2e+00, 4e+00]
  Bounds range     [1e+00, 1e+00]
  RHS range        [1e+00, 2e+00]
Presolve removed 21 rows and 0 columns
Presolve time: 0.00s

Explored 0 nodes (0 simplex iterations) in 0.00 seconds
Thread count was 1 (of 8 available processors)

Solution count 0

Model is infeasible
Best objective -, best bound -, gap -

Gurobi 7.0.2 (linux64, Python) logging started Tue Jun  6 15:22:02 2017

Optimize a model with 804 rows, 882 columns and 3588 nonzeros
Variable types: 0 continuous, 882 integer (882 binary)
Coefficient statistics:
  Matrix range     [1e+00, 3e+00]
  Objective range  [2e+00, 4e+00]
  Bounds range     [1e+00, 1e+00]
  RHS range        [1e+00, 2e+00]
Presolve removed 21 rows and 0 columns
Presolve time: 0.00s

Explored 0 nodes (0 simplex iterations) in 0.00 seconds
Thread count was 1 (of 8 available processors)

Solution count 0

Model is infeasible
Best objective -, best bound -, gap -

Gurobi 7.0.2 (linux64, Python) logging started Tue Jun  6 15:24:35 2017

Optimize a model with 876 rows, 882 columns and 3732 nonzeros
Variable types: 0 continuous, 882 integer (882 binary)
Coefficient statistics:
  Matrix range     [1e+00, 3e+00]
  Objective range  [2e+00, 4e+00]
  Bounds range     [1e+00, 1e+00]
  RHS range        [1e+00, 2e+00]
Presolve removed 21 rows and 0 columns
Presolve time: 0.00s

Explored 0 nodes (0 simplex iterations) in 0.00 seconds
Thread count was 1 (of 8 available processors)

Solution count 0

Model is infeasible
Best objective -, best bound -, gap -

Gurobi 7.0.2 (linux64, Python) logging started Tue Jun  6 15:35:14 2017


Gurobi 7.0.2 (linux64, Python) logging started Tue Jun  6 15:35:31 2017

Optimize a model with 876 rows, 882 columns and 3732 nonzeros
Variable types: 0 continuous, 882 integer (882 binary)
Coefficient statistics:
  Matrix range     [1e+00, 3e+00]
  Objective range  [2e+00, 4e+00]
  Bounds range     [1e+00, 1e+00]
  RHS range        [1e+00, 2e+00]
Presolve removed 21 rows and 0 columns
Presolve time: 0.00s

Explored 0 nodes (0 simplex iterations) in 0.00 seconds
Thread count was 1 (of 8 available processors)

Solution count 0

Model is infeasible
Best objective -, best bound -, gap -

Gurobi 7.0.2 (linux64, Python) logging started Tue Jun  6 15:36:31 2017

Error: it isn't a multi-objective model

Gurobi 7.0.2 (linux64, Python) logging started Tue Jun  6 15:42:54 2017


Gurobi 7.0.2 (linux64, Python) logging started Tue Jun  6 15:43:28 2017

Optimize a model with 876 rows, 882 columns and 3732 nonzeros
Variable types: 0 continuous, 882 integer (882 binary)
Coefficient statistics:
  Matrix range     [1e+00, 3e+00]
  Objective range  [2e+00, 4e+00]
  Bounds range     [1e+00, 1e+00]
  RHS range        [1e+00, 2e+00]
Presolve removed 21 rows and 0 columns
Presolve time: 0.00s

Explored 0 nodes (0 simplex iterations) in 0.00 seconds
Thread count was 1 (of 8 available processors)

Solution count 0

Model is infeasible
Best objective -, best bound -, gap -

Gurobi 7.0.2 (linux64, Python) logging started Tue Jun  6 15:43:47 2017

Optimize a model with 876 rows, 882 columns and 3732 nonzeros
Variable types: 0 continuous, 882 integer (882 binary)
Coefficient statistics:
  Matrix range     [1e+00, 1e+00]
  Objective range  [2e+00, 4e+00]
  Bounds range     [1e+00, 1e+00]
  RHS range        [1e+00, 2e+00]
Presolve removed 118 rows and 39 columns
Presolve time: 0.00s

Explored 0 nodes (0 simplex iterations) in 0.00 seconds
Thread count was 1 (of 8 available processors)

Solution count 0

Model is infeasible
Best objective -, best bound -, gap -

Gurobi 7.0.2 (linux64, Python) logging started Tue Jun  6 15:55:21 2017

Optimize a model with 876 rows, 882 columns and 3624 nonzeros
Variable types: 0 continuous, 882 integer (882 binary)
Coefficient statistics:
  Matrix range     [1e+00, 1e+00]
  Objective range  [2e+00, 4e+00]
  Bounds range     [1e+00, 1e+00]
  RHS range        [1e+00, 2e+00]
Presolve removed 21 rows and 0 columns
Presolve time: 0.00s

Explored 0 nodes (0 simplex iterations) in 0.00 seconds
Thread count was 1 (of 8 available processors)

Solution count 0

Model is infeasible
Best objective -, best bound -, gap -

Gurobi 7.0.2 (linux64, Python) logging started Tue Jun  6 16:01:49 2017

Optimize a model with 876 rows, 882 columns and 3624 nonzeros
Variable types: 0 continuous, 882 integer (882 binary)
Coefficient statistics:
  Matrix range     [1e+00, 1e+00]
  Objective range  [2e+00, 4e+00]
  Bounds range     [1e+00, 1e+00]
  RHS range        [1e+00, 2e+00]
Presolve removed 21 rows and 0 columns
Presolve time: 0.00s

Explored 0 nodes (0 simplex iterations) in 0.00 seconds
Thread count was 1 (of 8 available processors)

Solution count 0

Model is infeasible
Best objective -, best bound -, gap -

Computing Irreducible Inconsistent Subsystem (IIS)...

      Constraints           Bounds       Runtime
     Min       Max       Min      Max
------------------------------------------------
        0      876         0        0         0s
        4        4         0        0         0s

IIS computed: 4 constraints, 0 bounds
IIS runtime: 0.00 seconds

Gurobi 7.0.2 (linux64, Python) logging started Tue Jun  6 16:03:12 2017

Optimize a model with 876 rows, 882 columns and 3624 nonzeros
Variable types: 0 continuous, 882 integer (882 binary)
Coefficient statistics:
  Matrix range     [1e+00, 1e+00]
  Objective range  [2e+00, 4e+00]
  Bounds range     [1e+00, 1e+00]
  RHS range        [1e+00, 1e+01]
Presolve removed 462 rows and 143 columns
Presolve time: 0.00s

Explored 0 nodes (0 simplex iterations) in 0.00 seconds
Thread count was 1 (of 8 available processors)

Solution count 0

Model is infeasible
Best objective -, best bound -, gap -

Computing Irreducible Inconsistent Subsystem (IIS)...

      Constraints           Bounds       Runtime
     Min       Max       Min      Max
------------------------------------------------
        0      876         0        0         0s
       10       10         0        0         0s

IIS computed: 10 constraints, 0 bounds
IIS runtime: 0.01 seconds

Gurobi 7.0.2 (linux64, Python) logging started Tue Jun  6 16:03:45 2017

Optimize a model with 876 rows, 882 columns and 3624 nonzeros
Variable types: 0 continuous, 882 integer (882 binary)
Coefficient statistics:
  Matrix range     [1e+00, 1e+00]
  Objective range  [2e+00, 4e+00]
  Bounds range     [1e+00, 1e+00]
  RHS range        [1e+00, 1e+01]
Presolve removed 462 rows and 143 columns
Presolve time: 0.00s

Explored 0 nodes (0 simplex iterations) in 0.00 seconds
Thread count was 1 (of 8 available processors)

Solution count 0

Model is infeasible
Best objective -, best bound -, gap -

Computing Irreducible Inconsistent Subsystem (IIS)...

      Constraints           Bounds       Runtime
     Min       Max       Min      Max
------------------------------------------------
        0      876         0        0         0s
       10       10         0        0         0s

IIS computed: 10 constraints, 0 bounds
IIS runtime: 0.01 seconds

Gurobi 7.0.2 (linux64, Python) logging started Tue Jun  6 16:15:53 2017

Optimize a model with 876 rows, 882 columns and 3624 nonzeros
Variable types: 0 continuous, 882 integer (882 binary)
Coefficient statistics:
  Matrix range     [1e+00, 1e+00]
  Objective range  [2e+00, 4e+00]
  Bounds range     [1e+00, 1e+00]
  RHS range        [1e+00, 1e+01]
Presolve removed 462 rows and 143 columns
Presolve time: 0.00s

Explored 0 nodes (0 simplex iterations) in 0.00 seconds
Thread count was 1 (of 8 available processors)

Solution count 0

Model is infeasible
Best objective -, best bound -, gap -

Computing Irreducible Inconsistent Subsystem (IIS)...

      Constraints           Bounds       Runtime
     Min       Max       Min      Max
------------------------------------------------
        0      876         0        0         0s
       10       10         0        0         0s

IIS computed: 10 constraints, 0 bounds
IIS runtime: 0.01 seconds

Gurobi 7.0.2 (linux64, Python) logging started Tue Jun  6 16:25:06 2017


Gurobi 7.0.2 (linux64, Python) logging started Tue Jun  6 16:25:21 2017

Optimize a model with 260076 rows, 882 columns and 15864 nonzeros
Variable types: 0 continuous, 882 integer (882 binary)
Coefficient statistics:
  Matrix range     [1e+00, 1e+00]
  Objective range  [2e+00, 4e+00]
  Bounds range     [1e+00, 1e+00]
  RHS range        [1e+00, 1e+01]
Presolve removed 247422 rows and 0 columns
Presolve time: 0.01s

Explored 0 nodes (0 simplex iterations) in 0.02 seconds
Thread count was 1 (of 8 available processors)

Solution count 0

Model is infeasible
Best objective -, best bound -, gap -

Computing Irreducible Inconsistent Subsystem (IIS)...

      Constraints           Bounds       Runtime
     Min       Max       Min      Max
------------------------------------------------
        0   260076         0        0         0s
        2        2         0        0         0s

IIS computed: 2 constraints, 0 bounds
IIS runtime: 0.13 seconds

Gurobi 7.0.2 (linux64, Python) logging started Tue Jun  6 16:40:04 2017


Gurobi 7.0.2 (linux64, Python) logging started Tue Jun  6 16:43:18 2017

Optimize a model with 1113 rows, 882 columns and 5484 nonzeros
Variable types: 0 continuous, 882 integer (882 binary)
Coefficient statistics:
  Matrix range     [1e+00, 1e+00]
  Objective range  [2e+00, 4e+00]
  Bounds range     [1e+00, 1e+00]
  RHS range        [1e+00, 1e+01]
Presolve removed 429 rows and 39 columns
Presolve time: 0.00s

Explored 0 nodes (0 simplex iterations) in 0.00 seconds
Thread count was 1 (of 8 available processors)

Solution count 0

Model is infeasible
Best objective -, best bound -, gap -

Computing Irreducible Inconsistent Subsystem (IIS)...

      Constraints           Bounds       Runtime
     Min       Max       Min      Max
------------------------------------------------
        0     1113         0        0         0s
        7        7         0        0         0s

IIS computed: 7 constraints, 0 bounds
IIS runtime: 0.01 seconds

Gurobi 7.0.2 (linux64, Python) logging started Tue Jun  6 16:47:21 2017

Optimize a model with 876 rows, 882 columns and 3732 nonzeros
Variable types: 0 continuous, 882 integer (882 binary)
Coefficient statistics:
  Matrix range     [1e+00, 1e+00]
  Objective range  [2e+00, 4e+00]
  Bounds range     [1e+00, 1e+00]
  RHS range        [1e+00, 1e+01]
Presolve removed 408 rows and 39 columns
Presolve time: 0.00s

Explored 0 nodes (0 simplex iterations) in 0.00 seconds
Thread count was 1 (of 8 available processors)

Solution count 0

Model is infeasible
Best objective -, best bound -, gap -

Computing Irreducible Inconsistent Subsystem (IIS)...

      Constraints           Bounds       Runtime
     Min       Max       Min      Max
------------------------------------------------
        0      876         0        0         0s
        6        6         0        0         0s

IIS computed: 6 constraints, 0 bounds
IIS runtime: 0.01 seconds

Gurobi 7.0.2 (linux64, Python) logging started Tue Jun  6 16:49:06 2017

Optimize a model with 780 rows, 882 columns and 3540 nonzeros
Variable types: 0 continuous, 882 integer (882 binary)
Coefficient statistics:
  Matrix range     [1e+00, 1e+00]
  Objective range  [2e+00, 4e+00]
  Bounds range     [1e+00, 1e+00]
  RHS range        [1e+00, 1e+01]
Presolve removed 366 rows and 143 columns
Presolve time: 0.00s

Explored 0 nodes (0 simplex iterations) in 0.00 seconds
Thread count was 1 (of 8 available processors)

Solution count 0

Model is infeasible
Best objective -, best bound -, gap -

Computing Irreducible Inconsistent Subsystem (IIS)...

      Constraints           Bounds       Runtime
     Min       Max       Min      Max
------------------------------------------------
        0      780         0        0         0s
       11       11         0        0         0s

IIS computed: 11 constraints, 0 bounds
IIS runtime: 0.01 seconds

Gurobi 7.0.2 (linux64, Python) logging started Wed Jun  7 10:42:48 2017


Gurobi 7.0.2 (linux64, Python) logging started Wed Jun  7 10:43:09 2017


Gurobi 7.0.2 (linux64, Python) logging started Wed Jun  7 10:45:13 2017

Optimize a model with 876 rows, 882 columns and 3732 nonzeros
Variable types: 0 continuous, 882 integer (882 binary)
Coefficient statistics:
  Matrix range     [1e+00, 1e+00]
  Objective range  [2e+00, 4e+00]
  Bounds range     [1e+00, 1e+00]
  RHS range        [1e+00, 1e+01]
Presolve removed 408 rows and 39 columns
Presolve time: 0.00s

Explored 0 nodes (0 simplex iterations) in 0.00 seconds
Thread count was 1 (of 8 available processors)

Solution count 0

Model is infeasible
Best objective -, best bound -, gap -

Computing Irreducible Inconsistent Subsystem (IIS)...

      Constraints           Bounds       Runtime
     Min       Max       Min      Max
------------------------------------------------
        0      876         0        0         0s
        6        6         0        0         0s

IIS computed: 6 constraints, 0 bounds
IIS runtime: 0.01 seconds

Gurobi 7.0.2 (linux64, Python) logging started Wed Jun  7 10:45:23 2017

